50 8
287 397
252 266
710 522
433 536
608 441
498 466
396 894
441 586
458 543
595 117
148 452
533 483
151 245
302 490
219 343
621 658
455 723
219 348
227 339
314 844
512 273
164 695
188 295
228 535
546 79
152 239
483 580
158 525
460 691
348 946
348 374
285 116
234 219
314 975
373 721
832 463
223 322
334 649
778 485
880 453
243 186
555 13
289 282
170 540
214 265
236 697
246 259
736 353
189 739
625 291
